WARNING: for repeatability, setting FPU to use double precision
 -----------------------------------------------------------------------------------------------------------------------
|                                 manysat2.0    4 thread(s) on 8 core(s)                                                |
 -----------------------------------------------------------------------------------------------------------------------
 ===============================================[ Problem Statistics ]==================================================
|                                                                                                                       |
|  Number of cores:                 4                                                                                   |
|  Number of variables:          4288                                                                                   |
|  Number of clauses:           76353                                                                                   |
|  Parse time:                   0.08 s                                                                                 |
|                                                                                                                       |
 ==============================================[ Search Statistics ]====================================================
|   Thread  | Conflicts |          ORIGINAL         |          LEARNT          |  exported  / imported      |  Progress |
|    (id)   |           |    Vars  Clauses Literals |    Limit  Clauses Lit/Cl |  (clauses by restart)      |           |
 =======================================================================================================================
|         0 |       100 |    3709    75393   428614 |    27644       60      5 |        1528  -           1 | 13.503 %  |
|         2 |       100 |    3709    75393   428614 |    27996      427      5 |        1633  -         330 | 13.503 %  |
|         1 |       100 |    3709    75393   428614 |    27996      491      5 |        1633  -         392 | 13.503 %  |
|         3 |       100 |    3709    75393   428614 |    27996      507      5 |        1736  -         406 | 13.503 %  |
|         0 |       250 |    3701    75393   428614 |    30408      582      5 |        1631  -         375 | 13.689 %  |
|         1 |       250 |    3699    75393   428614 |    30795     1012      5 |        1638  -         764 | 13.736 %  |
|         2 |       250 |    3704    75393   428614 |    30795     1028      5 |        1648  -         781 | 13.619 %  |
|         3 |       250 |    3704    75393   428614 |    30795     1076      5 |        1751  -         825 | 13.619 %  |
|         0 |       475 |    3701    75393   428614 |    33449     1633      5 |        1644  -        1201 | 13.689 %  |
|         3 |       475 |    3699    75393   428614 |    33875     1807      5 |        1755  -        1331 | 13.736 %  |
|         1 |       475 |    3690    75393   428614 |    33875     1833      5 |        1638  -        1362 | 13.946 %  |
|         2 |       475 |    3699    75393   428614 |    33875     1974      5 |        1652  -        1502 | 13.736 %  |
|         1 |       812 |    3690    75393   428614 |    37262     2847      5 |        1638  -        2038 | 13.946 %  |
|         3 |       812 |    3690    75393   428614 |    37262     3002      5 |        1755  -        2189 | 13.946 %  |
|         2 |       812 |    3690    75393   428614 |    37262     3334      5 |        1652  -        2525 | 13.946 %  |
|         0 |       812 |    3690    75393   428614 |    36794     3342      5 |        1645  -        2573 | 13.946 %  |
|         3 |      1318 |    3690    75393   428614 |    40989     4778      5 |        1755  -        3459 | 13.946 %  |
|         1 |      1318 |    3690    75393   428614 |    40989     4879      5 |        1638  -        3564 | 13.946 %  |
|         2 |      1318 |    3690    75393   428614 |    40989     5053      5 |        1652  -        3738 | 13.946 %  |
|         0 |      1318 |    3690    75393   428614 |    40473     5468      5 |        1645  -        4193 | 13.946 %  |
|         2 |      2077 |    3690    75393   428614 |    45087     7343      6 |        1776  -        5268 | 13.946 %  |
|         3 |      2077 |    3687    75393   428614 |    45087     7976      6 |        1755  -        5900 | 14.016 %  |
|         1 |      2077 |    3690    75393   428614 |    45087     8110      6 |        1763  -        6036 | 13.946 %  |
|         0 |      2077 |    3690    75393   428614 |    44521     8361      6 |        1770  -        6327 | 13.946 %  |
|         2 |      3216 |    3689    75393   428614 |    49596    11706      6 |        1777  -        8492 | 13.969 %  |
|         1 |      3216 |    3687    75393   428614 |    49596    12215      6 |        1763  -        9002 | 14.016 %  |
|         3 |      3216 |    3687    75393   428614 |    49596    12420      6 |        1755  -        9205 | 14.016 %  |
|         0 |      3216 |    3687    75393   428614 |    48973    12597      6 |        1770  -        9424 | 14.016 %  |
|         1 |      4924 |    3687    75393   428614 |    54556    18081      6 |        1780  -       13160 | 14.016 %  |
|         0 |      4924 |    3686    75393   428614 |    53870    18191      6 |        1772  -       13311 | 14.039 %  |
|         2 |      4924 |    3687    75393   428614 |    54556    18291      6 |        1796  -       13369 | 14.016 %  |
|         3 |      4924 |    3685    75393   428614 |    54556    18971      6 |        1772  -       14049 | 14.063 %  |
|         2 |      7486 |    3684    75393   428614 |    60012    25770      7 |        1812  -       18287 | 14.086 %  |
|         1 |      7486 |    3684    72000   408980 |    60012    25774      6 |        1813  -       18310 | 14.086 %  |
|         0 |      7486 |    3683    71984   408920 |    59257    26792      7 |        1811  -       19370 | 14.109 %  |
|         3 |      7486 |    3683    71984   408920 |    60012    28418      6 |        1812  -       20954 | 14.109 %  |
|         1 |     11330 |    3683    72000   408980 |    66013    35973      7 |        1816  -       24665 | 14.109 %  |
|         2 |     11330 |    3683    71984   408920 |    66013    37864      7 |        1815  -       26555 | 14.109 %  |
|         0 |     11330 |    3683    71984   408920 |    65183    37850      7 |        1814  -       26583 | 14.109 %  |
|         3 |     11330 |    3681    71984   408920 |    66013    39104      7 |        1812  -       27798 | 14.156 %  |
|         2 |     17096 |    3681    71984   408920 |    72614    51918      8 |        1815  -       34843 | 14.156 %  |
|         1 |     17096 |    3681    72000   408980 |    72614    52881      9 |        1816  -       35807 | 14.156 %  |
|         0 |     17096 |    3681    71984   408920 |    71701    53143      9 |        1814  -       36110 | 14.156 %  |
|         3 |     17096 |    3681    71984   408920 |    72614    54869      9 |        1812  -       37797 | 14.156 %  |
|         2 |     25745 |    3681    71951   408796 |    79876    71549     12 |        1815  -       45825 | 14.156 %  |
|         1 |     25745 |    3681    71951   408796 |    79876    71823     12 |        1816  -       46100 | 14.156 %  |
|         0 |     25745 |    3681    71951   408796 |    78871    72343     12 |        1814  -       46661 | 14.156 %  |
|         3 |     25745 |    3681    71951   408796 |    79876    73364     12 |        1812  -       47643 | 14.156 %  |
|         1 |     38719 |    3681    71951   408796 |    87863    54792     19 |        1816  -       60118 | 14.156 %  |
|         0 |     38719 |    3681    71951   408796 |    86759    57133     18 |        1814  -       61091 | 14.156 %  |
|         2 |     38719 |    3681    71951   408796 |    87863    58177     19 |        1815  -       61731 | 14.156 %  |
|         3 |     38719 |    3681    71951   408796 |    87863    57596     15 |        1812  -       61945 | 14.156 %  |
|         1 |     58180 |    3681    71951   408796 |    96650    87198     28 |        1816  -       73063 | 14.156 %  |
|         3 |     58180 |    3681    71951   408796 |    96650    90084     30 |        1812  -       74972 | 14.156 %  |
|         0 |     58180 |    3681    71951   408796 |    95434    35085     38 |        1814  -       76171 | 14.156 %  |
|         2 |     58180 |    3679    71942   408771 |    96650    38904     36 |        1815  -       81210 | 14.202 %  |
|         1 |     87372 |    3681    71951   408796 |   106315    89531     23 |        1821  -      106681 | 14.156 %  |
|         0 |     87372 |    3681    71951   408796 |   104978    94833     29 |        1819  -      106727 | 14.156 %  |
|         3 |     87372 |    3679    71942   408771 |   106315    92546     26 |        1816  -      109051 | 14.202 %  |
|         2 |     87372 |    3679    71942   408771 |   106315    38413     30 |        1816  -      111756 | 14.202 %  |
|         1 |    131161 |    3679    71942   408771 |   116946    88431     36 |        1821  -      133692 | 14.202 %  |
|         3 |    131161 |    3679    71942   408771 |   116946    95145     45 |        1816  -      139588 | 14.202 %  |
|         0 |    131161 |    3679    71942   408771 |   115476   103843     50 |        1819  -      143175 | 14.202 %  |
|         2 |    131161 |    3679    71942   408771 |   116946    30883     71 |        1816  -      143775 | 14.202 %  |
|         2 |    196845 |    3679    71942   408771 |   128641    42826     30 |        1816  -      178378 | 14.202 %  |
|         1 |    196845 |    3679    71942   408771 |   128641    45322     36 |        1821  -      190779 | 14.202 %  |
|         0 |    196845 |    3679    71942   408771 |   127023    71164     35 |        1819  -      209433 | 14.202 %  |
|         3 |    196845 |    3679    71942   408771 |   128641    80202     36 |        1816  -      218624 | 14.202 %  |
|         2 |    295371 |    3679    71942   408771 |   141505   122887     51 |        1816  -      260869 | 14.202 %  |
|         1 |    295371 |    3679    71942   408771 |   141505   123792     53 |        1821  -      272512 | 14.202 %  |
|         0 |    295371 |    3679    71942   408771 |   139726    40389     46 |        1819  -      282298 | 14.202 %  |
|         3 |    295371 |    3679    71942   408771 |   141505    45025     46 |        1816  -      291326 | 14.202 %  |
|         0 |    443160 |    3679    71942   408771 |   153698    34173     85 |        1819  -      363195 | 14.202 %  |
|         2 |    443160 |    3679    71942   408771 |   155656    41548     58 |        1816  -      374446 | 14.202 %  |
|         3 |    443160 |    3679    71942   408771 |   155656    74552     46 |        1816  -      403954 | 14.202 %  |
|         1 |    443160 |    3679    71942   408771 |   155656    92530     49 |        1821  -      419215 | 14.202 %  |
|         0 |    664843 |    3679    71942   408771 |   169068   133918     57 |        1819  -      499250 | 14.202 %  |
|         2 |    664843 |    3679    71942   408771 |   171221    41081     84 |        1816  -      533447 | 14.202 %  |
|         3 |    664843 |    3679    71942   408771 |   171221    55421     67 |        1816  -      537116 | 14.202 %  |
|         1 |    664843 |    3679    71942   408771 |   171221    93094     62 |        1821  -      579719 | 14.202 %  |
|         0 |    997368 |    3679    71942   408771 |   185975    81145     99 |        1819  -      673915 | 14.202 %  |
|         2 |    997368 |    3679    71942   408771 |   188343    94532     71 |        1816  -      689538 | 14.202 %  |
|         3 |    997368 |    3679    71942   408771 |   188343   115247     76 |        1816  -      700275 | 14.202 %  |
|         1 |    997368 |    3679    71942   408771 |   188343   142309     71 |        1821  -      736756 | 14.202 %  |
|         0 |   1496156 |    3679    71942   408771 |   204573   123602    241 |        1819  -      872374 | 14.202 %  |
|         3 |   1496156 |    3679    71942   408771 |   207178   157427    233 |        1816  -      902860 | 14.202 %  |
|         2 |   1496156 |    3679    71942   408771 |   207178   159481    165 |        1816  -      909104 | 14.202 %  |
|         1 |   1496156 |    3679    71942   408771 |   207178   103037     36 |        1821  -      988598 | 14.202 %  |
|         2 |   2244338 |    3679    71942   408771 |   227895   147369    122 |        1816  -     1219308 | 14.202 %  |
|         3 |   2244338 |    3679    71942   408771 |   227895   143458    106 |        1816  -     1219997 | 14.202 %  |
|         0 |   2244338 |    3679    71942   408771 |   225030    55651     67 |        1819  -     1275219 | 14.202 %  |
|         1 |   2244338 |    3679    71942   408771 |   227895    79752     65 |        1821  -     1283348 | 14.202 %  |
 =======================================================================================================================
 -----------------------------------------------------------------------------------------------------------------------
| ManySAT 2.2 - all threads statistics           DETERMINISTIC MODE ? N              initial limit export clauses :  10 |
|-----------------------------------------------------------------------------------------------------------------------|
|  Thread  | winner  |   #restarts   |   decisions   |  #conflicts   |   % shared cls  |  #extra units | #extra clauses |         
|----------|---------|---------------|---------------|---------------|-----------------|---------------|----------------|
|        0 |         |            24 |       8914704 |       2756098 |            53 % |          1819 |        1459628 |
|        1 |         |            24 |       9106603 |       2873610 |            49 % |          1821 |        1430499 |
|        2 |         |            24 |       9259544 |       2859231 |            49 % |          1816 |        1427274 |
|        3 |       x |            24 |       9224484 |       2816409 |            51 % |          1816 |        1447055 |
|----------------------------------------------------|---------------|-----------------|---------------|----------------|
|                                                    |      11305348 |            51 % |          7272 |        5764456 |
 -----------------------------------------------------------------------------------------------------------------------
 DETERMINISTIC_MODE? : NO 
 CONTROL POLICY?	 : STATIC (fixed Limit Export Clauses)  
 LIMIT EXPORT CLAUSES (PAIRWISE) : [identity] x 10

  ----------------------------------------         
   winner:  more statistics           
  ----------------------------------------         
  restarts              : 24
  conflicts             : 2816409        (2676 /sec)
  decisions             : 9224484        (1.44 % random) (8763 /sec)
  propagations          : 338602353      (321676 /sec)
  conflict literals     : 366874163      (11.30 % deleted)
  Memory used           : 798.00 MB
  CPU time              : 1052.62 s

SATISFIABLE
